Gurobi 9.1.2 (linux64) logging started Fri Mar  4 12:37:53 2022

Gurobi Optimizer version 9.1.2 build v9.1.2rc0 (linux64)
Thread count: 12 physical cores, 24 logical processors, using up to 1 threads
Optimize a model with 26055 rows, 26055 columns and 300950 nonzeros
Model fingerprint: 0x1b4abbbe
Model has 263661 quadratic objective terms
Variable types: 25955 continuous, 100 integer (100 binary)
Coefficient statistics:
  Matrix range     [4e-04, 1e+00]
  Objective range  [2e-23, 2e-03]
  QObjective range [1e-06, 3e-05]
  Bounds range     [1e+00, 1e+00]
  RHS range        [2e+00, 2e+00]
Found heuristic solution: objective 23.9388828
Presolve removed 6256 rows and 6256 columns
Presolve time: 0.74s
Presolved: 19799 rows, 19799 columns, 270832 nonzeros
Presolved model has 197838 quadratic objective terms
Variable types: 19699 continuous, 100 integer (100 binary)
Warning: Markowitz tolerance tightened to 0.125
Warning: Markowitz tolerance tightened to 0.25
Warning: Markowitz tolerance tightened to 0.5

Root simplex log...

Iteration    Objective       Primal Inf.    Dual Inf.      Time
    6042    2.3938883e+01   0.000000e+00   2.031247e+06      6s
    8997    1.6024662e+01   0.000000e+00   8.030287e+02     11s
   10744    1.6024518e+01   0.000000e+00   1.657065e+03     15s
   12218    1.6025079e+01   0.000000e+00   4.031343e+03     21s
   13242    9.4975666e+00   0.000000e+00   6.485513e+02     27s
   14268    9.4975666e+00   0.000000e+00   6.732420e+02     31s
   15221    9.4975666e+00   0.000000e+00   5.678415e+02     35s
   16556    9.4975666e+00   0.000000e+00   8.281774e+02     42s
   17382    9.4975666e+00   0.000000e+00   8.258547e+02     47s
   18202    9.4975666e+00   0.000000e+00   1.249810e+03     52s
   18788    9.4975666e+00   0.000000e+00   1.803791e+03     58s
   19062    9.4975666e+00   0.000000e+00   1.722735e+03     61s
   19602    9.4975666e+00   0.000000e+00   1.845297e+03     68s
   19870    9.4975666e+00   0.000000e+00   1.732053e+03     71s
   20367    9.4975666e+00   0.000000e+00   8.666599e+02     78s
   20626    9.4975666e+00   0.000000e+00   2.479752e+03     82s
   20900    9.4975666e+00   0.000000e+00   2.653359e+03     86s
   21346    7.2586304e+00   0.000000e+00   0.000000e+00     95s
   21349    7.2598633e+00   0.000000e+00   0.000000e+00     95s

Root relaxation: objective 7.259863e+00, 21349 iterations, 93.51 seconds

    Nodes    |    Current Node    |     Objective Bounds      |     Work
 Expl Unexpl |  Obj  Depth IntInf | Incumbent    BestBd   Gap | It/Node Time

     0     0    7.25986    0  100   23.93888    7.25986  69.7%     -   95s
     0     0    7.27413    0  100   23.93888    7.27413  69.6%     -  105s
     0     0    7.27708    0  100   23.93888    7.27708  69.6%     -  113s
     0     0    7.28075    0  100   23.93888    7.28075  69.6%     -  128s
     0     0    7.28096    0  100   23.93888    7.28096  69.6%     -  142s
     0     0    7.30181    0  100   23.93888    7.30181  69.5%     -  151s
     0     0    7.31443    0  100   23.93888    7.31443  69.4%     -  161s
     0     0    7.33666    0  100   23.93888    7.33666  69.4%     -  175s
     0     0    7.38231    0  100   23.93888    7.38231  69.2%     -  191s
H    0     0                      12.3567618    7.38231  40.3%     -  212s
     0     0    7.39801    0  100   12.35676    7.39801  40.1%     -  224s
     0     0    7.41657    0  100   12.35676    7.41657  40.0%     -  239s
     0     0    7.41797    0  100   12.35676    7.41797  40.0%     -  252s
     0     0    7.42845    0  100   12.35676    7.42845  39.9%     -  263s
     0     0    7.44776    0  100   12.35676    7.44776  39.7%     -  290s
     0     0    7.46129    0  100   12.35676    7.46129  39.6%     -  307s
     0     0    7.46961    0  100   12.35676    7.46961  39.6%     -  316s
     0     0    7.47745    0  100   12.35676    7.47745  39.5%     -  340s
     0     0    7.47898    0  100   12.35676    7.47898  39.5%     -  359s
     0     0    7.49564    0  100   12.35676    7.49564  39.3%     -  370s
     0     0    7.50265    0  100   12.35676    7.50265  39.3%     -  387s
     0     0    7.56560    0  100   12.35676    7.56560  38.8%     -  403s
     0     0    7.59383    0  100   12.35676    7.59383  38.5%     -  422s
     0     0    7.63253    0  100   12.35676    7.63253  38.2%     -  438s
     0     0    7.66268    0  100   12.35676    7.66268  38.0%     -  452s
     0     0    7.66567    0  100   12.35676    7.66567  38.0%     -  467s
     0     0    7.68270    0  100   12.35676    7.68270  37.8%     -  477s
     0     0    7.68291    0  100   12.35676    7.68291  37.8%     -  491s
     0     0    7.69672    0  100   12.35676    7.69672  37.7%     -  502s
     0     0    7.70452    0  100   12.35676    7.70452  37.6%     -  513s
     0     0    7.70775    0  100   12.35676    7.70775  37.6%     -  532s
     0     0    7.72883    0  100   12.35676    7.72883  37.5%     -  544s
     0     0    7.74738    0  100   12.35676    7.74738  37.3%     -  567s
     0     0    7.74829    0  100   12.35676    7.74829  37.3%     -  583s
     0     0    7.75352    0  100   12.35676    7.75352  37.3%     -  593s
     0     0    7.75356    0  100   12.35676    7.75356  37.3%     -  609s
     0     0    7.75786    0  100   12.35676    7.75786  37.2%     -  621s
     0     0    7.76239    0  100   12.35676    7.76239  37.2%     -  641s
     0     0    7.76665    0  100   12.35676    7.76665  37.1%     -  665s
     0     0    7.77281    0  100   12.35676    7.77281  37.1%     -  685s
     0     0    7.77457    0  100   12.35676    7.77457  37.1%     -  697s
     0     0    7.78485    0  100   12.35676    7.78485  37.0%     -  707s
     0     0    7.79121    0  100   12.35676    7.79121  36.9%     -  726s
     0     0    7.80434    0  100   12.35676    7.80434  36.8%     -  748s
     0     0    7.81145    0  100   12.35676    7.81145  36.8%     -  766s
     0     0    7.81222    0  100   12.35676    7.81222  36.8%     -  785s
     0     0    7.83164    0  100   12.35676    7.83164  36.6%     -  802s
     0     0    7.83578    0  100   12.35676    7.83578  36.6%     -  836s
     0     0    7.86372    0  100   12.35676    7.86372  36.4%     -  860s
     0     0    7.86419    0  100   12.35676    7.86419  36.4%     -  879s
     0     0    7.86896    0  100   12.35676    7.86896  36.3%     -  897s
     0     0    7.87466    0  100   12.35676    7.87466  36.3%     -  908s
     0     0    7.89057    0  100   12.35676    7.89057  36.1%     -  921s
     0     0    7.89518    0  100   12.35676    7.89518  36.1%     -  937s
     0     0    7.89579    0  100   12.35676    7.89579  36.1%     -  956s
     0     0    7.90130    0  100   12.35676    7.90130  36.1%     -  981s
     0     0    7.90568    0  100   12.35676    7.90568  36.0%     - 1002s
     0     0    7.91622    0  100   12.35676    7.91622  35.9%     - 1025s
     0     0    7.92486    0  100   12.35676    7.92486  35.9%     - 1046s
     0     0    7.93030    0  100   12.35676    7.93030  35.8%     - 1091s
     0     0    7.93896    0  100   12.35676    7.93896  35.8%     - 1112s
     0     0    7.94060    0  100   12.35676    7.94060  35.7%     - 1130s
     0     0    7.95940    0  100   12.35676    7.95940  35.6%     - 1156s
     0     0    7.96965    0  100   12.35676    7.96965  35.5%     - 1189s
     0     0    7.97394    0  100   12.35676    7.97394  35.5%     - 1221s
     0     0    7.98243    0  100   12.35676    7.98243  35.4%     - 1242s
     0     0    7.98398    0  100   12.35676    7.98398  35.4%     - 1264s
     0     0    7.99461    0  100   12.35676    7.99461  35.3%     - 1280s
     0     0    8.00460    0  100   12.35676    8.00460  35.2%     - 1305s
     0     0    8.01262    0  100   12.35676    8.01262  35.2%     - 1343s
     0     0    8.02449    0  100   12.35676    8.02449  35.1%     - 1361s
     0     0    8.03272    0  100   12.35676    8.03272  35.0%     - 1387s
     0     0    8.04646    0  100   12.35676    8.04646  34.9%     - 1413s
     0     0    8.05426    0  100   12.35676    8.05426  34.8%     - 1433s
     0     0    8.06403    0  100   12.35676    8.06403  34.7%     - 1460s
     0     0    8.06780    0  100   12.35676    8.06780  34.7%     - 1474s
     0     0    8.08187    0  100   12.35676    8.08187  34.6%     - 1491s
     0     0    8.08205    0  100   12.35676    8.08205  34.6%     - 1515s
     0     0    8.09311    0  100   12.35676    8.09311  34.5%     - 1531s
     0     0    8.09842    0  100   12.35676    8.09842  34.5%     - 1555s
     0     0    8.11402    0  100   12.35676    8.11402  34.3%     - 1582s
     0     0    8.12391    0  100   12.35676    8.12391  34.3%     - 1614s
     0     0    8.12593    0  100   12.35676    8.12593  34.2%     - 1648s
     0     0    8.13790    0  100   12.35676    8.13790  34.1%     - 1673s
     0     0    8.14137    0  100   12.35676    8.14137  34.1%     - 1704s
     0     0    8.14963    0  100   12.35676    8.14963  34.0%     - 1729s
     0     0    8.15652    0  100   12.35676    8.15652  34.0%     - 1759s
     0     0    8.15653    0  100   12.35676    8.15653  34.0%     - 1784s
     0     0    8.16623    0  100   12.35676    8.16623  33.9%     - 1809s
     0     0    8.16828    0  100   12.35676    8.16828  33.9%     - 1844s
     0     0    8.19145    0  100   12.35676    8.19145  33.7%     - 1888s
     0     0    8.19188    0  100   12.35676    8.19188  33.7%     - 1918s
     0     0    8.20382    0  100   12.35676    8.20382  33.6%     - 1941s
     0     0    8.20416    0  100   12.35676    8.20416  33.6%     - 1972s
     0     0    8.21407    0  100   12.35676    8.21407  33.5%     - 1995s
     0     0    8.21664    0  100   12.35676    8.21664  33.5%     - 2030s
     0     0    8.23276    0  100   12.35676    8.23276  33.4%     - 2055s
     0     0    8.23822    0  100   12.35676    8.23822  33.3%     - 2102s
     0     0    8.25073    0  100   12.35676    8.25073  33.2%     - 2128s
     0     0    8.25076    0  100   12.35676    8.25076  33.2%     - 2164s
     0     0    8.26231    0  100   12.35676    8.26231  33.1%     - 2187s
     0     0    8.26261    0  100   12.35676    8.26261  33.1%     - 2203s
     0     0    8.27456    0  100   12.35676    8.27456  33.0%     - 2223s
     0     0    8.27655    0  100   12.35676    8.27655  33.0%     - 2248s
     0     0    8.30548    0  100   12.35676    8.30548  32.8%     - 2281s
     0     0    8.30632    0  100   12.35676    8.30632  32.8%     - 2305s
     0     0    8.30651    0  100   12.35676    8.30651  32.8%     - 2337s
     0     0    8.30651    0  100   12.35676    8.30651  32.8%     - 2356s
     0     0    8.32607    0  100   12.35676    8.32607  32.6%     - 2377s
     0     0    8.33303    0  100   12.35676    8.33303  32.6%     - 2405s
     0     0    8.33308    0  100   12.35676    8.33308  32.6%     - 2433s
     0     0    8.34459    0  100   12.35676    8.34459  32.5%     - 2454s
     0     0    8.34530    0  100   12.35676    8.34530  32.5%     - 2482s
     0     0    8.35274    0  100   12.35676    8.35274  32.4%     - 2503s
     0     0    8.35710    0  100   12.35676    8.35710  32.4%     - 2525s
     0     0    8.35744    0  100   12.35676    8.35744  32.4%     - 2564s
     0     0    8.36178    0  100   12.35676    8.36178  32.3%     - 2605s
     0     0    8.36184    0  100   12.35676    8.36184  32.3%     - 2634s
     0     0    8.36420    0  100   12.35676    8.36420  32.3%     - 2657s
     0     0    8.36424    0  100   12.35676    8.36424  32.3%     - 2685s
     0     0    8.38292    0  100   12.35676    8.38292  32.2%     - 2715s
     0     0    8.38460    0  100   12.35676    8.38460  32.1%     - 2756s
     0     0    8.40988    0  100   12.35676    8.40988  31.9%     - 2792s
     0     0    8.41118    0  100   12.35676    8.41118  31.9%     - 2821s
     0     0    8.42431    0  100   12.35676    8.42431  31.8%     - 2847s
     0     0    8.42444    0  100   12.35676    8.42444  31.8%     - 2870s
     0     0    8.42445    0  100   12.35676    8.42445  31.8%     - 2892s
     0     0    8.43256    0  100   12.35676    8.43256  31.8%     - 2907s
     0     0    8.43402    0  100   12.35676    8.43402  31.7%     - 2937s
     0     0    8.43404    0  100   12.35676    8.43404  31.7%     - 2970s
     0     0    8.44380    0  100   12.35676    8.44380  31.7%     - 2994s
     0     0    8.44382    0  100   12.35676    8.44382  31.7%     - 3021s
     0     0    8.45249    0  100   12.35676    8.45249  31.6%     - 3055s
     0     0    8.45369    0  100   12.35676    8.45369  31.6%     - 3083s
     0     0    8.45376    0  100   12.35676    8.45376  31.6%     - 3098s
     0     0    8.46781    0  100   12.35676    8.46781  31.5%     - 3121s
     0     0    8.46808    0  100   12.35676    8.46808  31.5%     - 3159s
     0     0    8.46818    0  100   12.35676    8.46818  31.5%     - 3183s
     0     0    8.48203    0  100   12.35676    8.48203  31.4%     - 3206s
     0     0    8.48641    0  100   12.35676    8.48641  31.3%     - 3243s
     0     0    8.49147    0  100   12.35676    8.49147  31.3%     - 3275s
     0     0    8.49177    0  100   12.35676    8.49177  31.3%     - 3296s
     0     0    8.50240    0  100   12.35676    8.50240  31.2%     - 3312s
     0     0    8.50265    0  100   12.35676    8.50265  31.2%     - 3353s
     0     0    8.50890    0  100   12.35676    8.50890  31.1%     - 3368s
     0     0    8.50891    0  100   12.35676    8.50891  31.1%     - 3393s
     0     0    8.51894    0  100   12.35676    8.51894  31.1%     - 3417s
     0     0    8.51974    0  100   12.35676    8.51974  31.1%     - 3446s
     0     0    8.52431    0  100   12.35676    8.52431  31.0%     - 3472s
     0     0    8.52451    0  100   12.35676    8.52451  31.0%     - 3496s
     0     0    8.53020    0  100   12.35676    8.53020  31.0%     - 3518s
     0     0    8.53021    0  100   12.35676    8.53021  31.0%     - 3544s
     0     0    8.53569    0  100   12.35676    8.53569  30.9%     - 3559s
     0     0    8.53766    0  100   12.35676    8.53766  30.9%     - 3598s
     0     0    8.54028    0  100   12.35676    8.54028  30.9%     - 3620s
     0     0    8.54030    0  100   12.35676    8.54030  30.9%     - 3638s
     0     0    8.54663    0  100   12.35676    8.54663  30.8%     - 3665s
     0     0    8.54761    0  100   12.35676    8.54761  30.8%     - 3712s
     0     0    8.55582    0  100   12.35676    8.55582  30.8%     - 3740s
     0     0    8.55966    0  100   12.35676    8.55966  30.7%     - 3773s
     0     0    8.56458    0  100   12.35676    8.56458  30.7%     - 3796s
     0     0    8.56518    0  100   12.35676    8.56518  30.7%     - 3841s
     0     0    8.56531    0  100   12.35676    8.56531  30.7%     - 3874s
     0     0    8.57409    0  100   12.35676    8.57409  30.6%     - 3911s
     0     0    8.57829    0  100   12.35676    8.57829  30.6%     - 3945s
     0     0    8.57863    0  100   12.35676    8.57863  30.6%     - 3978s
     0     0    8.59463    0  100   12.35676    8.59463  30.4%     - 3997s
     0     0    8.60165    0  100   12.35676    8.60165  30.4%     - 4037s
     0     0    8.60219    0  100   12.35676    8.60219  30.4%     - 4067s
     0     0    8.60755    0  100   12.35676    8.60755  30.3%     - 4108s
     0     0    8.60865    0  100   12.35676    8.60865  30.3%     - 4131s
     0     0    9.73964    0   68   12.35676    9.73964  21.2%     - 4485s
     0     2    9.77343    0   68   12.35676    9.77343  20.9%     - 4651s
     1     3   12.26771    1   17   12.35676   11.87019  3.94%   159 4656s
     3     3   12.28103    2   16   12.35676   11.87019  3.94%  74.0 4662s
     5     5   12.28754    4   13   12.35676   11.87019  3.94%  47.2 4666s
*    7     5               6      12.3396874   11.87019  3.80%  37.6 4669s
     8     5   12.33562    5   12   12.33969   11.87019  3.80%  37.5 4672s
*   10     3               6      12.3194020   11.87019  3.65%  40.6 4677s
    12     1     cutoff    1        12.31940   12.28103  0.31%  39.4 4684s
    13     0     cutoff    3        12.31940   12.31940  0.00%  36.5 4686s

Cutting planes:
  Network: 29

Explored 14 nodes (25303 simplex iterations) in 4686.54 seconds
Thread count was 1 (of 24 available processors)

Solution count 4: 12.3194 12.3397 12.3568 23.9389 

Optimal solution found (tolerance 1.00e-04)
Best objective 1.231940200817e+01, best bound 1.231940200817e+01, gap 0.0000%
